Route #1: 1 22 37 48 42 30 54 57 23 1
Route #2: 1 11 18 32 56 47 4 41 1
Route #3: 1 6 26 52 16 9 8 21 43 15 14 1
Route #4: 1 7 33 51 19 28 29 10 55 1
Route #5: 1 50 31 5 13 39 49 34 1
Route #6: 1 12 35 45 17 1
Route #7: 1 44 46 25 53 2 1
Route #8: 1 3 24 40 27 20 1
Route #9: 1 36 38 1
cost 1816
